n = 10;
x = array2d(1..10,1..10,[_,_,_,1,_,_,_,_,_,_,_,_,1,_,_,_,_,_,_,_,_,1,_,_,_,2,_,_,_,_,1,_,_,_,2,_,_,_,_,_,_,_,_,2,1,_,_,_,_,_,_,_,2,_,_,1,_,_,_,_,_,_,_,_,_,_,1,_,_,_,_,_,_,_,_,_,_,1,_,2,_,_,_,_,_,_,_,_,2,_,_,_,_,_,_,_,_,2,_,_]);
